\ Model ARP
\ LP format - for model browsing. Use MPS format to capture full model detail.
Minimize
  70.194 x[1129,1075] + 121.746 x[467,305] + 177.867 x[897,1075]
   + 180.802 x[770,144] + 54.978 x[553,644] + 42.239 x[1126,1132]
   + 130.69 x[961,557] + 65.47 x[1165,1141] + 51.258 x[468,467]
   + 158.119 x[1075,770] + 42.997 x[1220,1199] + 50.97 x[1138,1132]
   + 42.254 x[1226,1223] + 118.694 x[467,160] + 40.252 x[1113,1114]
   + 41.882 x[1118,1117] + 177.867 x[1075,897] + 127.883 x[144,897]
   + 55.796 x[644,643] + 42.957 x[1199,1187] + 120.15 x[160,617]
   + 115.799 x[159,145] + 85.902 x[1145,1177] + 101.674 x[306,305]
   + 41.378 x[1120,1123] + 42.997 x[1199,1220] + 118.618 x[643,467]
   + 41.378 x[1123,1120] + 131.296 x[839,866] + 42.239 x[1132,1126]
   + 46.733 x[1169,1165] + 86.45 x[1132,1129] + 119.471 x[159,839]
   + 41.882 x[1117,1118] + 119.5 x[1122,1142] + 22.78 x[1142,1143]
   + 114.953 x[897,961] + 18.716 x[1118,1120] + 251.867 x[770,1137]
   + 45.339 x[1142,1141] + 120.318 x[145,144] + 110.089 x[1124,1144]
   + 43.417 x[552,553] + 20.921 x[1177,1178] + 42.661 x[1109,1111]
   + 114.953 x[961,897] + 78.64 x[1143,1170] + 45.339 x[1141,1142]
   + 121.746 x[305,467] + 22.603 x[1144,1143] + 73.471 x[1114,1118]
   + 118.694 x[160,467] + 86.45 x[1129,1132] + 35.296 x[1116,1117]
   + 21.079 x[1145,1144] + 131.909 x[1228,1178] + 131.92 x[160,159]
   + 34.843 x[1109,1114] + 115.799 x[145,159] + 127.628 x[1111,1123]
   + 73.471 x[1118,1114] + 81.884 x[1126,1121] + 21.072 x[1177,1171]
   + 118.793 x[305,617] + 109.002 x[552,558] + 45.103 x[1119,1122]
   + 119.575 x[160,866] + 118.145 x[866,643] + 21.079 x[1144,1145]
   + 98.906 x[1125,1140] + 131.296 x[866,839] + 52.681 x[235,468]
   + 120.004 x[644,468] + 18.716 x[1120,1118] + 158.119 x[770,1075]
   + 110.344 x[961,839] + 41.346 x[1187,1166] + 46.265 x[1220,1223]
   + 118.523 x[770,1080] + 127.628 x[1123,1111] + 118.145 x[643,866]
   + 22.78 x[1143,1142] + 20.921 x[1178,1177] + 120.004 x[468,644]
   + 119.471 x[839,159] + 35.296 x[1117,1116] + 40.252 x[1114,1113]
   + 106.291 x[1123,1139] + 85.902 x[1177,1145] + 180.802 x[144,770]
   + 133.082 x[1119,1141] + 132.102 x[1226,1171] + 131.909 x[1178,1228]
   + 133.082 x[1141,1119] + 118.793 x[617,305] + 43.269 x[1140,1139]
   + 65.783 x[558,643] + 78.64 x[1170,1143] + 70.194 x[1075,1129]
   + 101.674 x[305,306] + 43.269 x[1139,1140] + 251.867 x[1137,770]
   + 42.254 x[1223,1226] + 86.993 x[557,866] + 114.521 x[557,558]
   + 130.69 x[557,961] + 81.884 x[1121,1126] + 71.261 x[1075,1137]
   + 95.515 x[1125,1115] + 42.957 x[1187,1199] + 73.085 x[1117,1113]
   + 110.089 x[1144,1124] + 41.39 x[1139,1138] + 73.085 x[1113,1117]
   + 34.843 x[1114,1109] + 62.44 x[645,553] + 62.44 x[553,645]
   + 41.583 x[1125,1123] + 21.589 x[1169,1170] + 132.203 x[1223,1169]
   + 109.002 x[558,552] + 65.47 x[1141,1165] + 55.796 x[643,644]
   + 21.072 x[1171,1177] + 20.214 x[1171,1170] + 118.523 x[1080,770]
   + 22.603 x[1143,1144] + 46.265 x[1223,1220] + 20.214 x[1170,1171]
   + 119.575 x[866,160] + 71.261 x[1137,1075] + 51.258 x[467,468]
   + 120.318 x[144,145] + 50.97 x[1132,1138] + 118.618 x[467,643]
   + 45.632 x[1122,1124] + 43.516 x[1140,1141] + 20.097 x[1126,1120]
   + 119.5 x[1142,1122] + 54.978 x[644,553] + 20.097 x[1120,1126]
   + 41.39 x[1138,1139] + 21.589 x[1170,1169] + 132.102 x[1171,1226]
   + 43.417 x[553,552] + 42.865 x[1228,1226] + 43.516 x[1141,1140]
   + 95.515 x[1115,1125] + 41.583 x[1123,1125] + 41.346 x[1166,1187]
   + 131.92 x[159,160] + 127.883 x[897,144] + 114.593 x[839,144]
   + 106.291 x[1139,1123] + 120.15 x[617,160] + 114.593 x[144,839]
   + 98.906 x[1140,1125] + 132.203 x[1169,1223] + 86.993 x[866,557]
   + 114.521 x[558,557] + 110.344 x[839,961] + 46.733 x[1165,1169]
   + 42.865 x[1226,1228] + 65.783 x[643,558] + 52.681 x[468,235]
   + 11.9 y[1131,2916] + 46.234 y[1232,1220] + 5.532 y[1165,1166]
   + 11.9 y[2916,1131] + 53.61 y[1111,1115] + 42.615 y[1121,1129]
   + 45.428 y[1110,1109] + 38.025 y[145,413] + 60.443 y[235,645]
   + 20.745 y[1138,1137] + 42.227 y[1121,1116] + 60.443 y[645,235]
   + 5.532 y[1166,1165] + 18.714 y[1110,1113] + 18.714 y[1113,1110]
   + 42.227 y[1116,1121] + 42.615 y[1129,1121] + 20.745 y[1137,1138]
   + 56.658 y[1128,1131] + 38.025 y[413,145] + 74.584 y[1112,1116]
   + 74.584 y[1116,1112] + 40.769 y[1124,1127] + 41.596 y[1127,1128]
   + 32.18 y[1112,1110] + 504.933 y[2916,1112] + 70.228 y[1115,1119]
   + 46.234 y[1220,1232]
Subject To
 VisitarTodosArcos[1109,1111]: x[1109,1111] >= 1
 VisitarTodosArcos[1119,1122]: x[1119,1122] >= 1
 VisitarTodosArcos[1122,1124]: x[1122,1124] >= 1
 VisitarTodosArcosBidireccionales[1129,1075,1075,1129]: x[1129,1075]
   + x[1075,1129] >= 1
 VisitarTodosArcosBidireccionales[467,305,305,467]: x[467,305] + x[305,467]
   >= 1
 VisitarTodosArcosBidireccionales[897,1075,1075,897]: x[897,1075]
   + x[1075,897] >= 1
 VisitarTodosArcosBidireccionales[770,144,144,770]: x[770,144] + x[144,770]
   >= 1
 VisitarTodosArcosBidireccionales[553,644,644,553]: x[553,644] + x[644,553]
   >= 1
 VisitarTodosArcosBidireccionales[1126,1132,1132,1126]: x[1126,1132]
   + x[1132,1126] >= 1
 VisitarTodosArcosBidireccionales[961,557,557,961]: x[961,557] + x[557,961]
   >= 1
 VisitarTodosArcosBidireccionales[1165,1141,1141,1165]: x[1165,1141]
   + x[1141,1165] >= 1
 VisitarTodosArcosBidireccionales[468,467,467,468]: x[468,467] + x[467,468]
   >= 1
 VisitarTodosArcosBidireccionales[1075,770,770,1075]: x[1075,770]
   + x[770,1075] >= 1
 VisitarTodosArcosBidireccionales[1220,1199,1199,1220]: x[1220,1199]
   + x[1199,1220] >= 1
 VisitarTodosArcosBidireccionales[1138,1132,1132,1138]: x[1138,1132]
   + x[1132,1138] >= 1
 VisitarTodosArcosBidireccionales[1226,1223,1223,1226]: x[1226,1223]
   + x[1223,1226] >= 1
 VisitarTodosArcosBidireccionales[467,160,160,467]: x[467,160] + x[160,467]
   >= 1
 VisitarTodosArcosBidireccionales[1113,1114,1114,1113]: x[1113,1114]
   + x[1114,1113] >= 1
 VisitarTodosArcosBidireccionales[1118,1117,1117,1118]: x[1118,1117]
   + x[1117,1118] >= 1
 VisitarTodosArcosBidireccionales[1075,897,897,1075]: x[897,1075]
   + x[1075,897] >= 1
 VisitarTodosArcosBidireccionales[144,897,897,144]: x[144,897] + x[897,144]
   >= 1
 VisitarTodosArcosBidireccionales[644,643,643,644]: x[644,643] + x[643,644]
   >= 1
 VisitarTodosArcosBidireccionales[1199,1187,1187,1199]: x[1199,1187]
   + x[1187,1199] >= 1
 VisitarTodosArcosBidireccionales[160,617,617,160]: x[160,617] + x[617,160]
   >= 1
 VisitarTodosArcosBidireccionales[159,145,145,159]: x[159,145] + x[145,159]
   >= 1
 VisitarTodosArcosBidireccionales[1145,1177,1177,1145]: x[1145,1177]
   + x[1177,1145] >= 1
 VisitarTodosArcosBidireccionales[306,305,305,306]: x[306,305] + x[305,306]
   >= 1
 VisitarTodosArcosBidireccionales[1120,1123,1123,1120]: x[1120,1123]
   + x[1123,1120] >= 1
 VisitarTodosArcosBidireccionales[1199,1220,1220,1199]: x[1220,1199]
   + x[1199,1220] >= 1
 VisitarTodosArcosBidireccionales[643,467,467,643]: x[643,467] + x[467,643]
   >= 1
 VisitarTodosArcosBidireccionales[1123,1120,1120,1123]: x[1120,1123]
   + x[1123,1120] >= 1
 VisitarTodosArcosBidireccionales[839,866,866,839]: x[839,866] + x[866,839]
   >= 1
 VisitarTodosArcosBidireccionales[1132,1126,1126,1132]: x[1126,1132]
   + x[1132,1126] >= 1
 VisitarTodosArcosBidireccionales[1169,1165,1165,1169]: x[1169,1165]
   + x[1165,1169] >= 1
 VisitarTodosArcosBidireccionales[1132,1129,1129,1132]: x[1132,1129]
   + x[1129,1132] >= 1
 VisitarTodosArcosBidireccionales[159,839,839,159]: x[159,839] + x[839,159]
   >= 1
 VisitarTodosArcosBidireccionales[1117,1118,1118,1117]: x[1118,1117]
   + x[1117,1118] >= 1
 VisitarTodosArcosBidireccionales[1122,1142,1142,1122]: x[1122,1142]
   + x[1142,1122] >= 1
 VisitarTodosArcosBidireccionales[1142,1143,1143,1142]: x[1142,1143]
   + x[1143,1142] >= 1
 VisitarTodosArcosBidireccionales[897,961,961,897]: x[897,961] + x[961,897]
   >= 1
 VisitarTodosArcosBidireccionales[1118,1120,1120,1118]: x[1118,1120]
   + x[1120,1118] >= 1
 VisitarTodosArcosBidireccionales[770,1137,1137,770]: x[770,1137]
   + x[1137,770] >= 1
 VisitarTodosArcosBidireccionales[1142,1141,1141,1142]: x[1142,1141]
   + x[1141,1142] >= 1
 VisitarTodosArcosBidireccionales[145,144,144,145]: x[145,144] + x[144,145]
   >= 1
 VisitarTodosArcosBidireccionales[1124,1144,1144,1124]: x[1124,1144]
   + x[1144,1124] >= 1
 VisitarTodosArcosBidireccionales[552,553,553,552]: x[552,553] + x[553,552]
   >= 1
 VisitarTodosArcosBidireccionales[1177,1178,1178,1177]: x[1177,1178]
   + x[1178,1177] >= 1
 VisitarTodosArcosBidireccionales[961,897,897,961]: x[897,961] + x[961,897]
   >= 1
 VisitarTodosArcosBidireccionales[1143,1170,1170,1143]: x[1143,1170]
   + x[1170,1143] >= 1
 VisitarTodosArcosBidireccionales[1141,1142,1142,1141]: x[1142,1141]
   + x[1141,1142] >= 1
 VisitarTodosArcosBidireccionales[305,467,467,305]: x[467,305] + x[305,467]
   >= 1
 VisitarTodosArcosBidireccionales[1144,1143,1143,1144]: x[1144,1143]
   + x[1143,1144] >= 1
 VisitarTodosArcosBidireccionales[1114,1118,1118,1114]: x[1114,1118]
   + x[1118,1114] >= 1
 VisitarTodosArcosBidireccionales[160,467,467,160]: x[467,160] + x[160,467]
   >= 1
 VisitarTodosArcosBidireccionales[1129,1132,1132,1129]: x[1132,1129]
   + x[1129,1132] >= 1
 VisitarTodosArcosBidireccionales[1116,1117,1117,1116]: x[1116,1117]
   + x[1117,1116] >= 1
 VisitarTodosArcosBidireccionales[1145,1144,1144,1145]: x[1145,1144]
   + x[1144,1145] >= 1
 VisitarTodosArcosBidireccionales[1228,1178,1178,1228]: x[1228,1178]
   + x[1178,1228] >= 1
 VisitarTodosArcosBidireccionales[160,159,159,160]: x[160,159] + x[159,160]
   >= 1
 VisitarTodosArcosBidireccionales[1109,1114,1114,1109]: x[1109,1114]
   + x[1114,1109] >= 1
 VisitarTodosArcosBidireccionales[145,159,159,145]: x[159,145] + x[145,159]
   >= 1
 VisitarTodosArcosBidireccionales[1111,1123,1123,1111]: x[1111,1123]
   + x[1123,1111] >= 1
 VisitarTodosArcosBidireccionales[1118,1114,1114,1118]: x[1114,1118]
   + x[1118,1114] >= 1
 VisitarTodosArcosBidireccionales[1126,1121,1121,1126]: x[1126,1121]
   + x[1121,1126] >= 1
 VisitarTodosArcosBidireccionales[1177,1171,1171,1177]: x[1177,1171]
   + x[1171,1177] >= 1
 VisitarTodosArcosBidireccionales[305,617,617,305]: x[305,617] + x[617,305]
   >= 1
 VisitarTodosArcosBidireccionales[552,558,558,552]: x[552,558] + x[558,552]
   >= 1
 VisitarTodosArcosBidireccionales[160,866,866,160]: x[160,866] + x[866,160]
   >= 1
 VisitarTodosArcosBidireccionales[866,643,643,866]: x[866,643] + x[643,866]
   >= 1
 VisitarTodosArcosBidireccionales[1144,1145,1145,1144]: x[1145,1144]
   + x[1144,1145] >= 1
 VisitarTodosArcosBidireccionales[1125,1140,1140,1125]: x[1125,1140]
   + x[1140,1125] >= 1
 VisitarTodosArcosBidireccionales[866,839,839,866]: x[839,866] + x[866,839]
   >= 1
 VisitarTodosArcosBidireccionales[235,468,468,235]: x[235,468] + x[468,235]
   >= 1
 VisitarTodosArcosBidireccionales[644,468,468,644]: x[644,468] + x[468,644]
   >= 1
 VisitarTodosArcosBidireccionales[1120,1118,1118,1120]: x[1118,1120]
   + x[1120,1118] >= 1
 VisitarTodosArcosBidireccionales[770,1075,1075,770]: x[1075,770]
   + x[770,1075] >= 1
 VisitarTodosArcosBidireccionales[961,839,839,961]: x[961,839] + x[839,961]
   >= 1
 VisitarTodosArcosBidireccionales[1187,1166,1166,1187]: x[1187,1166]
   + x[1166,1187] >= 1
 VisitarTodosArcosBidireccionales[1220,1223,1223,1220]: x[1220,1223]
   + x[1223,1220] >= 1
 VisitarTodosArcosBidireccionales[770,1080,1080,770]: x[770,1080]
   + x[1080,770] >= 1
 VisitarTodosArcosBidireccionales[1123,1111,1111,1123]: x[1111,1123]
   + x[1123,1111] >= 1
 VisitarTodosArcosBidireccionales[643,866,866,643]: x[866,643] + x[643,866]
   >= 1
 VisitarTodosArcosBidireccionales[1143,1142,1142,1143]: x[1142,1143]
   + x[1143,1142] >= 1
 VisitarTodosArcosBidireccionales[1178,1177,1177,1178]: x[1177,1178]
   + x[1178,1177] >= 1
 VisitarTodosArcosBidireccionales[468,644,644,468]: x[644,468] + x[468,644]
   >= 1
 VisitarTodosArcosBidireccionales[839,159,159,839]: x[159,839] + x[839,159]
   >= 1
 VisitarTodosArcosBidireccionales[1117,1116,1116,1117]: x[1116,1117]
   + x[1117,1116] >= 1
 VisitarTodosArcosBidireccionales[1114,1113,1113,1114]: x[1113,1114]
   + x[1114,1113] >= 1
 VisitarTodosArcosBidireccionales[1123,1139,1139,1123]: x[1123,1139]
   + x[1139,1123] >= 1
 VisitarTodosArcosBidireccionales[1177,1145,1145,1177]: x[1145,1177]
   + x[1177,1145] >= 1
 VisitarTodosArcosBidireccionales[144,770,770,144]: x[770,144] + x[144,770]
   >= 1
 VisitarTodosArcosBidireccionales[1119,1141,1141,1119]: x[1119,1141]
   + x[1141,1119] >= 1
 VisitarTodosArcosBidireccionales[1226,1171,1171,1226]: x[1226,1171]
   + x[1171,1226] >= 1
 VisitarTodosArcosBidireccionales[1178,1228,1228,1178]: x[1228,1178]
   + x[1178,1228] >= 1
 VisitarTodosArcosBidireccionales[1141,1119,1119,1141]: x[1119,1141]
   + x[1141,1119] >= 1
 VisitarTodosArcosBidireccionales[617,305,305,617]: x[305,617] + x[617,305]
   >= 1
 VisitarTodosArcosBidireccionales[1140,1139,1139,1140]: x[1140,1139]
   + x[1139,1140] >= 1
 VisitarTodosArcosBidireccionales[558,643,643,558]: x[558,643] + x[643,558]
   >= 1
 VisitarTodosArcosBidireccionales[1170,1143,1143,1170]: x[1143,1170]
   + x[1170,1143] >= 1
 VisitarTodosArcosBidireccionales[1075,1129,1129,1075]: x[1129,1075]
   + x[1075,1129] >= 1
 VisitarTodosArcosBidireccionales[305,306,306,305]: x[306,305] + x[305,306]
   >= 1
 VisitarTodosArcosBidireccionales[1139,1140,1140,1139]: x[1140,1139]
   + x[1139,1140] >= 1
 VisitarTodosArcosBidireccionales[1137,770,770,1137]: x[770,1137]
   + x[1137,770] >= 1
 VisitarTodosArcosBidireccionales[1223,1226,1226,1223]: x[1226,1223]
   + x[1223,1226] >= 1
 VisitarTodosArcosBidireccionales[557,866,866,557]: x[557,866] + x[866,557]
   >= 1
 VisitarTodosArcosBidireccionales[557,558,558,557]: x[557,558] + x[558,557]
   >= 1
 VisitarTodosArcosBidireccionales[557,961,961,557]: x[961,557] + x[557,961]
   >= 1
 VisitarTodosArcosBidireccionales[1121,1126,1126,1121]: x[1126,1121]
   + x[1121,1126] >= 1
 VisitarTodosArcosBidireccionales[1075,1137,1137,1075]: x[1075,1137]
   + x[1137,1075] >= 1
 VisitarTodosArcosBidireccionales[1125,1115,1115,1125]: x[1125,1115]
   + x[1115,1125] >= 1
 VisitarTodosArcosBidireccionales[1187,1199,1199,1187]: x[1199,1187]
   + x[1187,1199] >= 1
 VisitarTodosArcosBidireccionales[1117,1113,1113,1117]: x[1117,1113]
   + x[1113,1117] >= 1
 VisitarTodosArcosBidireccionales[1144,1124,1124,1144]: x[1124,1144]
   + x[1144,1124] >= 1
 VisitarTodosArcosBidireccionales[1139,1138,1138,1139]: x[1139,1138]
   + x[1138,1139] >= 1
 VisitarTodosArcosBidireccionales[1113,1117,1117,1113]: x[1117,1113]
   + x[1113,1117] >= 1
 VisitarTodosArcosBidireccionales[1114,1109,1109,1114]: x[1109,1114]
   + x[1114,1109] >= 1
 VisitarTodosArcosBidireccionales[645,553,553,645]: x[645,553] + x[553,645]
   >= 1
 VisitarTodosArcosBidireccionales[553,645,645,553]: x[645,553] + x[553,645]
   >= 1
 VisitarTodosArcosBidireccionales[1125,1123,1123,1125]: x[1125,1123]
   + x[1123,1125] >= 1
 VisitarTodosArcosBidireccionales[1169,1170,1170,1169]: x[1169,1170]
   + x[1170,1169] >= 1
 VisitarTodosArcosBidireccionales[1223,1169,1169,1223]: x[1223,1169]
   + x[1169,1223] >= 1
 VisitarTodosArcosBidireccionales[558,552,552,558]: x[552,558] + x[558,552]
   >= 1
 VisitarTodosArcosBidireccionales[1141,1165,1165,1141]: x[1165,1141]
   + x[1141,1165] >= 1
 VisitarTodosArcosBidireccionales[643,644,644,643]: x[644,643] + x[643,644]
   >= 1
 VisitarTodosArcosBidireccionales[1171,1177,1177,1171]: x[1177,1171]
   + x[1171,1177] >= 1
 VisitarTodosArcosBidireccionales[1171,1170,1170,1171]: x[1171,1170]
   + x[1170,1171] >= 1
 VisitarTodosArcosBidireccionales[1080,770,770,1080]: x[770,1080]
   + x[1080,770] >= 1
 VisitarTodosArcosBidireccionales[1143,1144,1144,1143]: x[1144,1143]
   + x[1143,1144] >= 1
 VisitarTodosArcosBidireccionales[1223,1220,1220,1223]: x[1220,1223]
   + x[1223,1220] >= 1
 VisitarTodosArcosBidireccionales[1170,1171,1171,1170]: x[1171,1170]
   + x[1170,1171] >= 1
 VisitarTodosArcosBidireccionales[866,160,160,866]: x[160,866] + x[866,160]
   >= 1
 VisitarTodosArcosBidireccionales[1137,1075,1075,1137]: x[1075,1137]
   + x[1137,1075] >= 1
 VisitarTodosArcosBidireccionales[467,468,468,467]: x[468,467] + x[467,468]
   >= 1
 VisitarTodosArcosBidireccionales[144,145,145,144]: x[145,144] + x[144,145]
   >= 1
 VisitarTodosArcosBidireccionales[1132,1138,1138,1132]: x[1138,1132]
   + x[1132,1138] >= 1
 VisitarTodosArcosBidireccionales[467,643,643,467]: x[643,467] + x[467,643]
   >= 1
 VisitarTodosArcosBidireccionales[1140,1141,1141,1140]: x[1140,1141]
   + x[1141,1140] >= 1
 VisitarTodosArcosBidireccionales[1126,1120,1120,1126]: x[1126,1120]
   + x[1120,1126] >= 1
 VisitarTodosArcosBidireccionales[1142,1122,1122,1142]: x[1122,1142]
   + x[1142,1122] >= 1
 VisitarTodosArcosBidireccionales[644,553,553,644]: x[553,644] + x[644,553]
   >= 1
 VisitarTodosArcosBidireccionales[1120,1126,1126,1120]: x[1126,1120]
   + x[1120,1126] >= 1
 VisitarTodosArcosBidireccionales[1138,1139,1139,1138]: x[1139,1138]
   + x[1138,1139] >= 1
 VisitarTodosArcosBidireccionales[1170,1169,1169,1170]: x[1169,1170]
   + x[1170,1169] >= 1
 VisitarTodosArcosBidireccionales[1171,1226,1226,1171]: x[1226,1171]
   + x[1171,1226] >= 1
 VisitarTodosArcosBidireccionales[553,552,552,553]: x[552,553] + x[553,552]
   >= 1
 VisitarTodosArcosBidireccionales[1228,1226,1226,1228]: x[1228,1226]
   + x[1226,1228] >= 1
 VisitarTodosArcosBidireccionales[1141,1140,1140,1141]: x[1140,1141]
   + x[1141,1140] >= 1
 VisitarTodosArcosBidireccionales[1115,1125,1125,1115]: x[1125,1115]
   + x[1115,1125] >= 1
 VisitarTodosArcosBidireccionales[1123,1125,1125,1123]: x[1125,1123]
   + x[1123,1125] >= 1
 VisitarTodosArcosBidireccionales[1166,1187,1187,1166]: x[1187,1166]
   + x[1166,1187] >= 1
 VisitarTodosArcosBidireccionales[159,160,160,159]: x[160,159] + x[159,160]
   >= 1
 VisitarTodosArcosBidireccionales[897,144,144,897]: x[144,897] + x[897,144]
   >= 1
 VisitarTodosArcosBidireccionales[839,144,144,839]: x[839,144] + x[144,839]
   >= 1
 VisitarTodosArcosBidireccionales[1139,1123,1123,1139]: x[1123,1139]
   + x[1139,1123] >= 1
 VisitarTodosArcosBidireccionales[617,160,160,617]: x[160,617] + x[617,160]
   >= 1
 VisitarTodosArcosBidireccionales[144,839,839,144]: x[839,144] + x[144,839]
   >= 1
 VisitarTodosArcosBidireccionales[1140,1125,1125,1140]: x[1125,1140]
   + x[1140,1125] >= 1
 VisitarTodosArcosBidireccionales[1169,1223,1223,1169]: x[1223,1169]
   + x[1169,1223] >= 1
 VisitarTodosArcosBidireccionales[866,557,557,866]: x[557,866] + x[866,557]
   >= 1
 VisitarTodosArcosBidireccionales[558,557,557,558]: x[557,558] + x[558,557]
   >= 1
 VisitarTodosArcosBidireccionales[839,961,961,839]: x[961,839] + x[839,961]
   >= 1
 VisitarTodosArcosBidireccionales[1165,1169,1169,1165]: x[1169,1165]
   + x[1165,1169] >= 1
 VisitarTodosArcosBidireccionales[1226,1228,1228,1226]: x[1228,1226]
   + x[1226,1228] >= 1
 VisitarTodosArcosBidireccionales[643,558,558,643]: x[558,643] + x[643,558]
   >= 1
 VisitarTodosArcosBidireccionales[468,235,235,468]: x[235,468] + x[468,235]
   >= 1
 R165: x[897,1075] - x[1075,897] - x[144,897] + x[897,961] - x[961,897]
   + x[897,144] = 0
 R166: x[770,144] - x[1075,770] + x[770,1137] + x[770,1075] + x[770,1080]
   - x[144,770] - x[1137,770] - x[1080,770] = 0
 R167: - x[644,643] + x[643,467] - x[866,643] + x[643,866] - x[558,643]
   + x[643,644] - x[467,643] + x[643,558] = 0
 R168: - x[553,644] + x[644,643] + x[644,468] - x[468,644] - x[643,644]
   + x[644,553] = 0
 R169: x[645,553] - x[553,645] - y[235,645] + y[645,235] = 0
 R170: x[1165,1141] - x[1169,1165] - x[1141,1165] + x[1165,1169]
   + y[1165,1166] - y[1166,1165] = 0
 R171: - x[1187,1166] + x[1166,1187] - y[1165,1166] + y[1166,1165] = 0
 R172: - x[770,144] + x[144,897] - x[145,144] + x[144,770] + x[144,145]
   - x[897,144] - x[839,144] + x[144,839] = 0
 R173: - x[159,145] + x[145,144] + x[145,159] - x[144,145] + y[145,413]
   - y[413,145] = 0
 R174: x[1169,1165] + x[1169,1170] - x[1223,1169] - x[1170,1169]
   + x[1169,1223] - x[1165,1169] = 0
 R175: - x[1143,1170] + x[1170,1143] - x[1169,1170] - x[1171,1170]
   + x[1170,1171] + x[1170,1169] - s_i[1170] = 0
 R176: - x[1177,1171] - x[1226,1171] + x[1171,1177] + x[1171,1170]
   - x[1170,1171] + x[1171,1226] = 0
 R177: - x[1145,1177] + x[1177,1178] + x[1177,1171] - x[1178,1177]
   + x[1177,1145] - x[1171,1177] = 0
 R178: - x[1177,1178] - x[1228,1178] + x[1178,1177] + x[1178,1228] = 0
 R179: x[159,145] + x[159,839] - x[160,159] - x[145,159] - x[839,159]
   + x[159,160] = 0
 R180: - x[467,160] + x[160,617] + x[160,467] + x[160,159] + x[160,866]
   - x[866,160] - x[159,160] - x[617,160] = 0
 R181: - x[1199,1187] + x[1187,1166] + x[1187,1199] - x[1166,1187] = 0
 R182: x[552,553] + x[552,558] - x[558,552] - x[553,552] = 0
 R183: x[553,644] - x[552,553] - x[645,553] + x[553,645] - x[644,553]
   + x[553,552] = 0
 R184: - x[961,557] + x[557,866] + x[557,558] + x[557,961] - x[866,557]
   - x[558,557] = 0
 R185: - x[552,558] + x[558,643] - x[557,558] + x[558,552] + x[558,557]
   - x[643,558] = 0
 R186: - x[1220,1199] + x[1199,1187] + x[1199,1220] - x[1187,1199] = 0
 R187: - x[467,305] - x[306,305] + x[305,467] + x[305,617] - x[617,305]
   + x[305,306] = 0
 R188: x[306,305] - x[305,306] = 0
 R189: - x[1129,1075] - x[897,1075] + x[1075,770] + x[1075,897]
   - x[770,1075] + x[1075,1129] + x[1075,1137] - x[1137,1075] = 0
 R190: - x[770,1080] + x[1080,770] = 0
 R191: x[961,557] - x[897,961] + x[961,897] + x[961,839] - x[557,961]
   - x[839,961] = 0
 R192: x[1220,1199] - x[1199,1220] + x[1220,1223] - x[1223,1220]
   - y[1232,1220] + y[1220,1232] = 0
 R193: - x[1226,1223] - x[1220,1223] + x[1223,1226] + x[1223,1169]
   + x[1223,1220] - x[1169,1223] = 0
 R194: x[839,866] - x[159,839] - x[866,839] - x[961,839] + x[839,159]
   + x[839,144] - x[144,839] + x[839,961] = 0
 R195: x[1226,1223] + x[1226,1171] - x[1223,1226] - x[1171,1226]
   - x[1228,1226] + x[1226,1228] = 0
 R196: x[1228,1178] - x[1178,1228] + x[1228,1226] - x[1226,1228] = 0
 R197: x[467,305] - x[468,467] + x[467,160] - x[643,467] - x[305,467]
   - x[160,467] + x[467,468] + x[467,643] = 0
 R198: x[468,467] - x[235,468] - x[644,468] + x[468,644] - x[467,468]
   + x[468,235] + t_i[468] = 0
 R199: x[1109,1111] + x[1109,1114] - x[1114,1109] - y[1110,1109] = 0
 R200: - x[1109,1111] + x[1111,1123] - x[1123,1111] + y[1111,1115] = 0
 R201: x[1113,1114] - x[1114,1113] - x[1117,1113] + x[1113,1117]
   - y[1110,1113] + y[1113,1110] = 0
 R202: - x[1113,1114] + x[1114,1118] - x[1109,1114] - x[1118,1114]
   + x[1114,1113] + x[1114,1109] = 0
 R203: - x[1125,1115] + x[1115,1125] - y[1111,1115] + y[1115,1119] = 0
 R204: x[1116,1117] - x[1117,1116] - y[1121,1116] + y[1116,1121]
   - y[1112,1116] + y[1116,1112] = 0
 R205: - x[1118,1117] + x[1117,1118] - x[1116,1117] + x[1117,1116]
   + x[1117,1113] - x[1113,1117] = 0
 R206: x[1118,1117] - x[1117,1118] + x[1118,1120] - x[1114,1118]
   + x[1118,1114] - x[1120,1118] = 0
 R207: x[1119,1122] + x[1119,1141] - x[1141,1119] - y[1115,1119] = 0
 R208: x[1120,1123] - x[1123,1120] - x[1118,1120] + x[1120,1118]
   - x[1126,1120] + x[1120,1126] = 0
 R209: - x[1126,1121] + x[1121,1126] + y[1121,1129] + y[1121,1116]
   - y[1116,1121] - y[1129,1121] = 0
 R210: - x[839,866] - x[160,866] + x[866,643] + x[866,839] - x[643,866]
   - x[557,866] + x[866,160] + x[866,557] = 0
 R211: - x[1120,1123] + x[1123,1120] - x[1111,1123] + x[1123,1111]
   + x[1123,1139] - x[1125,1123] + x[1123,1125] - x[1139,1123] = 0
 R212: x[1122,1142] - x[1119,1122] + x[1122,1124] - x[1142,1122] = 0
 R213: x[1124,1144] - x[1144,1124] - x[1122,1124] + y[1124,1127] = 0
 R214: x[1126,1132] - x[1132,1126] + x[1126,1121] - x[1121,1126]
   + x[1126,1120] - x[1120,1126] = 0
 R215: x[1125,1140] + x[1125,1115] + x[1125,1123] - x[1115,1125]
   - x[1123,1125] - x[1140,1125] = 0
 R216: x[1129,1075] - x[1132,1129] + x[1129,1132] - x[1075,1129]
   - y[1121,1129] + y[1129,1121] = 0
 R217: - x[160,617] - x[305,617] + x[617,305] + x[617,160] = 0
 R218: x[235,468] - x[468,235] + y[235,645] - y[645,235] = 0
 R219: - x[1126,1132] - x[1138,1132] + x[1132,1126] + x[1132,1129]
   - x[1129,1132] + x[1132,1138] = 0
 R220: - x[770,1137] + x[1137,770] - x[1075,1137] + x[1137,1075]
   - y[1138,1137] + y[1137,1138] = 0
 R221: x[1138,1132] - x[1139,1138] - x[1132,1138] + x[1138,1139]
   + y[1138,1137] - y[1137,1138] = 0
 R222: - x[1123,1139] - x[1140,1139] + x[1139,1140] + x[1139,1138]
   - x[1138,1139] + x[1139,1123] = 0
 R223: - x[1125,1140] + x[1140,1139] - x[1139,1140] + x[1140,1141]
   - x[1141,1140] + x[1140,1125] = 0
 R224: - x[1165,1141] - x[1142,1141] + x[1141,1142] - x[1119,1141]
   + x[1141,1119] + x[1141,1165] - x[1140,1141] + x[1141,1140] = 0
 R225: - x[1122,1142] + x[1142,1143] + x[1142,1141] - x[1141,1142]
   - x[1143,1142] + x[1142,1122] = 0
 R226: - x[1142,1143] + x[1143,1170] - x[1144,1143] + x[1143,1142]
   - x[1170,1143] + x[1143,1144] = 0
 R227: - x[1124,1144] + x[1144,1143] - x[1145,1144] + x[1144,1145]
   + x[1144,1124] - x[1143,1144] = 0
 R228: x[1145,1177] + x[1145,1144] - x[1144,1145] - x[1177,1145] = 0
 NodoInicial: s_i[1170] = 1
 NodoTerminal: t_i[468] = 1
Bounds
Binaries
 s_i[1170] t_i[468]
Generals
 x[1129,1075] x[467,305] x[897,1075] x[770,144] x[553,644] x[1126,1132]
 x[961,557] x[1165,1141] x[468,467] x[1075,770] x[1220,1199] x[1138,1132]
 x[1226,1223] x[467,160] x[1113,1114] x[1118,1117] x[1075,897] x[144,897]
 x[644,643] x[1199,1187] x[160,617] x[159,145] x[1145,1177] x[306,305]
 x[1120,1123] x[1199,1220] x[643,467] x[1123,1120] x[839,866] x[1132,1126]
 x[1169,1165] x[1132,1129] x[159,839] x[1117,1118] x[1122,1142]
 x[1142,1143] x[897,961] x[1118,1120] x[770,1137] x[1142,1141] x[145,144]
 x[1124,1144] x[552,553] x[1177,1178] x[1109,1111] x[961,897] x[1143,1170]
 x[1141,1142] x[305,467] x[1144,1143] x[1114,1118] x[160,467] x[1129,1132]
 x[1116,1117] x[1145,1144] x[1228,1178] x[160,159] x[1109,1114] x[145,159]
 x[1111,1123] x[1118,1114] x[1126,1121] x[1177,1171] x[305,617] x[552,558]
 x[1119,1122] x[160,866] x[866,643] x[1144,1145] x[1125,1140] x[866,839]
 x[235,468] x[644,468] x[1120,1118] x[770,1075] x[961,839] x[1187,1166]
 x[1220,1223] x[770,1080] x[1123,1111] x[643,866] x[1143,1142] x[1178,1177]
 x[468,644] x[839,159] x[1117,1116] x[1114,1113] x[1123,1139] x[1177,1145]
 x[144,770] x[1119,1141] x[1226,1171] x[1178,1228] x[1141,1119] x[617,305]
 x[1140,1139] x[558,643] x[1170,1143] x[1075,1129] x[305,306] x[1139,1140]
 x[1137,770] x[1223,1226] x[557,866] x[557,558] x[557,961] x[1121,1126]
 x[1075,1137] x[1125,1115] x[1187,1199] x[1117,1113] x[1144,1124]
 x[1139,1138] x[1113,1117] x[1114,1109] x[645,553] x[553,645] x[1125,1123]
 x[1169,1170] x[1223,1169] x[558,552] x[1141,1165] x[643,644] x[1171,1177]
 x[1171,1170] x[1080,770] x[1143,1144] x[1223,1220] x[1170,1171] x[866,160]
 x[1137,1075] x[467,468] x[144,145] x[1132,1138] x[467,643] x[1122,1124]
 x[1140,1141] x[1126,1120] x[1142,1122] x[644,553] x[1120,1126]
 x[1138,1139] x[1170,1169] x[1171,1226] x[553,552] x[1228,1226]
 x[1141,1140] x[1115,1125] x[1123,1125] x[1166,1187] x[159,160] x[897,144]
 x[839,144] x[1139,1123] x[617,160] x[144,839] x[1140,1125] x[1169,1223]
 x[866,557] x[558,557] x[839,961] x[1165,1169] x[1226,1228] x[643,558]
 x[468,235] y[1131,2916] y[1232,1220] y[1165,1166] y[2916,1131]
 y[1111,1115] y[1121,1129] y[1110,1109] y[145,413] y[235,645] y[1138,1137]
 y[1121,1116] y[645,235] y[1166,1165] y[1110,1113] y[1113,1110]
 y[1116,1121] y[1129,1121] y[1137,1138] y[1128,1131] y[413,145]
 y[1112,1116] y[1116,1112] y[1124,1127] y[1127,1128] y[1112,1110]
 y[2916,1112] y[1115,1119] y[1220,1232]
End
